* ENCODING=ISO-8859-1
NAME          CPLEX
ROWS
 N  obj1    
 G  c1      
 G  c2      
 G  c3      
 G  c4      
 G  c5      
 G  c6      
 G  c7      
 G  c8      
 G  c9      
 G  c10     
 G  c11     
 G  c12     
 G  c13     
 G  c14     
 G  c15     
 G  c16     
 G  c17     
 G  c18     
 G  c19     
 G  c20     
 G  c21     
 G  c22     
 G  c23     
 G  c24     
 G  c25     
 G  c26     
 G  c27     
 G  c28     
 G  c29     
 G  c30     
 G  c31     
 G  c32     
 G  c33     
 G  c34     
 G  c35     
 G  c36     
 G  c37     
 G  c38     
 G  c39     
 G  c40     
 G  c41     
 G  c42     
 G  c43     
 G  c44     
 G  c45     
 G  c46     
 G  c47     
 G  c48     
 G  c49     
 G  c50     
 G  c51     
 G  c52     
 G  c53     
 G  c54     
 G  c55     
 G  c56     
 G  c57     
 G  c58     
 G  c59     
 G  c60     
COLUMNS
    MARK0000  'MARKER'                 'INTORG'
    x1        obj1                            1
    x1        c33                           390
    x1        c36                           957
    x1        c40                           455
    x1        c45                           910
    x1        c47                           549
    x1        c60                           979
    x2        obj1                            1
    x2        c2                            554
    x2        c16                           224
    x2        c51                           401
    x2        c54                           908
    x2        c56                           667
    x3        obj1                            1
    x3        c1                            176
    x3        c13                           216
    x3        c35                           815
    x3        c36                           325
    x3        c57                           694
    x3        c58                           644
    x4        obj1                            1
    x4        c3                            291
    x4        c13                           227
    x4        c21                           578
    x4        c24                           827
    x4        c34                           814
    x4        c40                           122
    x5        obj1                            1
    x5        c24                           921
    x5        c29                           158
    x5        c35                           258
    x6        obj1                            1
    x6        c5                            115
    x6        c6                            769
    x6        c12                           845
    x6        c31                           198
    x6        c32                           321
    x6        c36                           729
    x6        c44                           610
    x6        c45                           870
    x6        c48                           447
    x6        c54                           450
    x6        c56                           128
    x6        c59                           714
    x7        obj1                            1
    x7        c21                           116
    x7        c26                           629
    x7        c49                           769
    x7        c60                           263
    x8        obj1                            1
    x8        c34                           966
    x8        c42                           761
    x8        c54                           529
    x9        obj1                            1
    x9        c11                           436
    x9        c17                           675
    x9        c27                           211
    x9        c46                           629
    x9        c49                           647
    x9        c55                           963
    x10       obj1                            1
    x10       c25                           639
    x10       c28                           555
    x10       c31                           427
    x10       c36                           250
    x10       c43                           997
    x11       obj1                            1
    x11       c18                           651
    x11       c20                           145
    x11       c35                           430
    x11       c42                           110
    x12       obj1                            1
    x12       c2                            452
    x12       c6                            110
    x12       c26                           291
    x12       c31                           754
    x12       c48                           797
    x12       c52                           793
    x12       c59                           566
    x13       obj1                            1
    x13       c6                            885
    x13       c11                           557
    x13       c18                           364
    x13       c24                           551
    x13       c29                           429
    x13       c34                           237
    x13       c36                           372
    x13       c51                           257
    x13       c55                           200
    x14       obj1                            1
    x14       c12                           274
    x14       c13                           482
    x14       c14                           651
    x14       c15                           161
    x14       c28                           220
    x14       c33                           158
    x14       c49                           190
    x14       c58                           227
    x15       obj1                            1
    x15       c6                            992
    x15       c12                           128
    x15       c27                           232
    x15       c39                           946
    x15       c42                           312
    x15       c43                           125
    x15       c49                           679
    x15       c50                           948
    x16       obj1                            1
    x16       c1                            449
    x16       c2                            121
    x16       c9                            294
    x16       c28                           822
    x16       c38                           423
    x16       c49                           980
    x16       c59                           514
    x17       obj1                            1
    x17       c5                            460
    x17       c16                           699
    x17       c36                           569
    x17       c42                           690
    x17       c45                           284
    x17       c58                           866
    x17       c59                           902
    x18       obj1                            1
    x18       c18                           354
    x18       c35                           933
    x18       c42                           549
    x18       c49                           257
    x18       c58                           651
    x19       obj1                            1
    x19       c29                           609
    x19       c34                           965
    x19       c35                           168
    x19       c41                           691
    x19       c44                           799
    x19       c51                           266
    x20       obj1                            1
    x20       c10                           660
    x20       c17                           438
    x20       c19                           725
    x20       c21                           956
    x20       c27                           266
    x20       c30                           859
    x20       c31                           255
    x20       c32                           434
    x20       c37                           374
    x20       c41                           772
    x21       obj1                            1
    x21       c13                           436
    x21       c14                           107
    x21       c21                           112
    x21       c34                           475
    x21       c38                           606
    x22       obj1                            1
    x22       c8                            325
    x22       c17                           334
    x22       c31                           151
    x22       c32                           914
    x22       c42                           199
    x22       c45                           799
    x22       c47                           149
    x23       obj1                            1
    x23       c17                           653
    x23       c20                           874
    x23       c25                           219
    x23       c35                           681
    x23       c40                           807
    x23       c44                           119
    x23       c46                           953
    x23       c50                           983
    x24       obj1                            1
    x24       c19                           830
    x24       c23                           125
    x24       c36                           480
    x24       c59                           357
    x25       obj1                            1
    x25       c4                            331
    x25       c13                           818
    x25       c24                           356
    x25       c50                           894
    x26       obj1                            1
    x26       c15                           322
    x26       c24                           737
    x26       c27                           924
    x26       c33                           767
    x26       c36                           253
    x26       c59                           487
    x27       obj1                            1
    x27       c6                            489
    x27       c13                           381
    x27       c23                           954
    x27       c47                           995
    x27       c54                           597
    x27       c60                           300
    x28       obj1                            1
    x28       c21                           136
    x28       c22                           393
    x28       c23                           696
    x28       c29                           667
    x28       c48                           386
    x28       c50                           829
    x29       obj1                            1
    x29       c1                            952
    x29       c15                           250
    x29       c16                           313
    x29       c20                           376
    x29       c30                           318
    x29       c33                           273
    x29       c39                           610
    x30       obj1                            1
    x30       c13                           651
    x30       c17                           247
    x30       c32                           662
    x30       c55                           281
    x31       obj1                            1
    x31       c4                           1000
    x31       c9                            615
    x31       c22                           323
    x31       c27                           644
    x31       c60                           468
    x32       obj1                            1
    x32       c7                            680
    x32       c12                           944
    x32       c14                           959
    x32       c24                           137
    x32       c48                           135
    x32       c57                           149
    x33       obj1                            1
    x33       c14                           726
    x33       c20                           390
    x33       c23                           964
    x33       c30                           947
    x33       c43                           106
    x33       c51                           557
    x33       c53                           664
    x33       c58                           531
    x33       c59                           910
    x34       obj1                            1
    x34       c19                           382
    x34       c30                           506
    x34       c32                           539
    x34       c41                           730
    x34       c54                           200
    x35       obj1                            1
    x35       c10                           574
    x35       c12                           191
    x35       c20                           323
    x35       c28                           562
    x35       c32                           787
    x35       c34                           994
    x35       c58                           331
    x36       obj1                            1
    x36       c8                            284
    x36       c22                           601
    x36       c30                           673
    x36       c38                           582
    x37       obj1                            1
    x37       c4                            664
    x37       c5                            505
    x37       c13                           622
    x37       c21                           255
    x37       c25                           262
    x37       c28                           965
    x37       c37                           870
    x37       c45                           569
    x37       c47                           243
    x37       c56                           211
    x37       c60                           338
    x38       obj1                            1
    x38       c8                            389
    x38       c20                           868
    x38       c32                           924
    x38       c48                           274
    x38       c53                           156
    x38       c59                           508
    x39       obj1                            1
    x39       c5                            539
    x39       c14                           275
    x39       c40                           623
    x39       c45                           955
    x39       c46                           333
    x39       c53                           311
    x39       c55                           955
    x40       obj1                            1
    x40       c5                            835
    x40       c11                           230
    x40       c17                           875
    x40       c33                           503
    x40       c37                           513
    x40       c50                           557
    x40       c53                           402
    x40       c56                           487
    x40       c57                           150
    x40       c60                           419
    x41       obj1                            1
    x41       c4                            999
    x41       c6                            726
    x41       c7                            272
    x41       c12                           288
    x41       c17                           439
    x41       c20                           115
    x41       c23                           252
    x41       c42                           985
    x41       c47                           351
    x42       obj1                            1
    x42       c7                            994
    x42       c44                           968
    x42       c49                           119
    x42       c50                           633
    x42       c54                           664
    x42       c56                           519
    x43       obj1                            1
    x43       c15                           870
    x43       c22                           189
    x43       c27                           849
    x43       c29                           339
    x44       obj1                            1
    x44       c9                            389
    x44       c14                           567
    x44       c28                           420
    x44       c33                           424
    x44       c35                           245
    x44       c48                           344
    x44       c52                           951
    x45       obj1                            1
    x45       c1                            389
    x45       c7                            933
    x45       c15                           763
    x45       c26                           766
    x45       c32                           439
    x45       c51                           154
    x46       obj1                            1
    x46       c7                            540
    x46       c18                           241
    x46       c22                           853
    x46       c44                           949
    x46       c46                           494
    x46       c48                           948
    x46       c56                           229
    x47       obj1                            1
    x47       c1                            987
    x47       c4                            588
    x47       c20                           357
    x47       c29                           523
    x47       c31                           202
    x47       c47                           181
    x47       c48                           129
    x47       c53                           204
    x47       c58                           673
    x47       c59                           454
    x48       obj1                            1
    x48       c3                            940
    x48       c11                           389
    x48       c33                           117
    x48       c52                           614
    x48       c54                           792
    x49       obj1                            1
    x49       c12                           211
    x49       c22                           444
    x49       c43                           164
    x49       c45                           253
    x49       c56                           810
    x49       c60                           406
    x50       obj1                            1
    x50       c16                           986
    x50       c33                           403
    x50       c50                           877
    x51       obj1                            1
    x51       c4                            934
    x51       c9                            240
    x51       c10                           269
    x51       c14                           417
    x51       c34                           522
    x51       c40                           434
    x51       c50                           416
    x51       c55                           354
    x52       obj1                            1
    x52       c10                           747
    x52       c11                           253
    x52       c12                           921
    x52       c16                           612
    x52       c19                           290
    x52       c24                           554
    x52       c30                           609
    x52       c46                           325
    x52       c47                           501
    x52       c49                           479
    x52       c51                           538
    x52       c52                           546
    x52       c53                           274
    x52       c56                           739
    x52       c58                           480
    x53       obj1                            1
    x53       c6                            832
    x53       c10                           715
    x53       c19                           974
    x53       c23                           426
    x53       c29                           639
    x53       c30                           974
    x53       c39                           528
    x53       c52                           263
    x54       obj1                            1
    x54       c10                           875
    x54       c20                           662
    x54       c22                           305
    x54       c25                           951
    x54       c31                           605
    x54       c32                           450
    x54       c33                           480
    x54       c40                           495
    x54       c56                           245
    x55       obj1                            1
    x55       c1                            723
    x55       c3                            593
    x55       c5                            161
    x55       c23                           857
    x55       c35                           188
    x55       c39                           946
    x55       c42                           665
    x55       c44                           838
    x55       c45                           584
    x55       c48                           384
    x55       c52                           366
    x55       c54                           617
    x55       c57                           562
    x56       obj1                            1
    x56       c4                            308
    x56       c17                           197
    x56       c21                           622
    x56       c39                           366
    x56       c54                           674
    x56       c60                           155
    x57       obj1                            1
    x57       c4                            502
    x57       c16                           409
    x57       c29                           635
    x57       c35                           936
    x57       c51                           418
    x58       obj1                            1
    x58       c27                           895
    x58       c47                           409
    x58       c50                           593
    x58       c58                           327
    x59       obj1                            1
    x59       c13                           240
    x59       c15                           482
    x59       c23                           544
    x59       c34                           124
    x59       c53                           769
    x60       obj1                            1
    x60       c2                            947
    x60       c9                            960
    x60       c22                           877
    x60       c27                           686
    x60       c29                           266
    MARK0001  'MARKER'                 'INTEND'
RHS
    rhs       c1                           1838
    rhs       c2                           1037
    rhs       c3                            912
    rhs       c4                           2663
    rhs       c5                           1308
    rhs       c6                           2402
    rhs       c7                           1710
    rhs       c8                            499
    rhs       c9                           1249
    rhs       c10                          1920
    rhs       c11                           933
    rhs       c12                          1901
    rhs       c13                          2037
    rhs       c14                          1851
    rhs       c15                          1424
    rhs       c16                          1622
    rhs       c17                          1929
    rhs       c18                           805
    rhs       c19                          1601
    rhs       c20                          2055
    rhs       c21                          1388
    rhs       c22                          1993
    rhs       c23                          2409
    rhs       c24                          2042
    rhs       c25                          1036
    rhs       c26                           843
    rhs       c27                          2354
    rhs       c28                          1772
    rhs       c29                          2133
    rhs       c30                          2443
    rhs       c31                          1296
    rhs       c32                          2735
    rhs       c33                          1758
    rhs       c34                          2549
    rhs       c35                          2327
    rhs       c36                          1968
    rhs       c37                           879
    rhs       c38                           806
    rhs       c39                          1698
    rhs       c40                          1468
    rhs       c41                          1097
    rhs       c42                          2136
    rhs       c43                           696
    rhs       c44                          2142
    rhs       c45                          2612
    rhs       c46                          1367
    rhs       c47                          1689
    rhs       c48                          1922
    rhs       c49                          2060
    rhs       c50                          3365
    rhs       c51                          1296
    rhs       c52                          1767
    rhs       c53                          1390
    rhs       c54                          2716
    rhs       c55                          1377
    rhs       c56                          2018
    rhs       c57                           778
    rhs       c58                          2365
    rhs       c59                          2706
    rhs       c60                          1664
BOUNDS
 LI bnd       x1        0
 LI bnd       x2        0
 LI bnd       x3        0
 LI bnd       x4        0
 LI bnd       x5        0
 LI bnd       x6        0
 LI bnd       x7        0
 LI bnd       x8        0
 LI bnd       x9        0
 LI bnd       x10       0
 LI bnd       x11       0
 LI bnd       x12       0
 LI bnd       x13       0
 LI bnd       x14       0
 LI bnd       x15       0
 LI bnd       x16       0
 LI bnd       x17       0
 LI bnd       x18       0
 LI bnd       x19       0
 LI bnd       x20       0
 LI bnd       x21       0
 LI bnd       x22       0
 LI bnd       x23       0
 LI bnd       x24       0
 LI bnd       x25       0
 LI bnd       x26       0
 LI bnd       x27       0
 LI bnd       x28       0
 LI bnd       x29       0
 LI bnd       x30       0
 LI bnd       x31       0
 LI bnd       x32       0
 LI bnd       x33       0
 LI bnd       x34       0
 LI bnd       x35       0
 LI bnd       x36       0
 LI bnd       x37       0
 LI bnd       x38       0
 LI bnd       x39       0
 LI bnd       x40       0
 LI bnd       x41       0
 LI bnd       x42       0
 LI bnd       x43       0
 LI bnd       x44       0
 LI bnd       x45       0
 LI bnd       x46       0
 LI bnd       x47       0
 LI bnd       x48       0
 LI bnd       x49       0
 LI bnd       x50       0
 LI bnd       x51       0
 LI bnd       x52       0
 LI bnd       x53       0
 LI bnd       x54       0
 LI bnd       x55       0
 LI bnd       x56       0
 LI bnd       x57       0
 LI bnd       x58       0
 LI bnd       x59       0
 LI bnd       x60       0
ENDATA
